data;


param d:= 100;
param r:=5;
param p:=0.760000;
param M:=1000;
param U:=
         1         1        1.683538e+00
         2         1       -1.016282e+00
         3         1       -1.060832e+00
         4         1        1.433211e+00
         5         1       -3.112890e-01
         6         1       -1.417990e-01
         7         1       -1.048015e+00
         8         1       -1.442225e+00
         9         1        1.088854e+00
        10         1       -5.962390e-01
        11         1       -7.797470e-01
        12         1        1.365598e+00
        13         1        2.805695e-01
        14         1       -4.606677e-01
        15         1       -1.244911e-02
        16         1        2.668792e-02
        17         1        1.415322e+00
        18         1        1.013204e+00
        19         1       -2.009021e-01
        20         1       -2.151181e+00
        21         1       -5.458493e-01
        22         1        2.778962e-01
        23         1        4.148455e-01
        24         1       -1.026191e+00
        25         1        1.752105e+00
        26         1        4.098042e-01
        27         1       -3.527144e-01
        28         1       -1.533838e-01
        29         1        2.890690e-01
        30         1        1.640304e+00
        31         1        5.233089e-01
        32         1       -9.593422e-01
        33         1        2.063251e-01
        34         1        8.434358e-01
        35         1        2.397934e-01
        36         1        4.840403e-01
        37         1        6.649878e-01
        38         1        1.379862e+00
        39         1        1.749104e+00
        40         1        3.826034e-01
        41         1        2.139154e+00
        42         1        1.619604e+00
        43         1       -3.157934e-01
        44         1        1.608760e+00
        45         1        4.028321e-01
        46         1       -5.938693e-01
        47         1       -6.033844e-01
        48         1        3.992792e-01
        49         1       -4.071406e-01
        50         1        2.046419e+00
        51         1       -1.658743e+00
        52         1        8.934186e-01
        53         1       -1.348803e+00
        54         1       -3.356052e-01
        55         1       -1.473427e-01
        56         1       -4.373965e-01
        57         1        2.369342e+00
        58         1        3.009878e-01
        59         1       -1.176673e+00
        60         1       -4.770334e-01
        61         1       -9.301058e-01
        62         1       -4.902113e-01
        63         1        8.169964e-01
        64         1       -1.258649e+00
        65         1       -2.933634e-01
        66         1       -9.503050e-01
        67         1        8.555033e-01
        68         1        4.839696e-01
        69         1        7.545869e-01
        70         1       -1.343958e+00
        71         1        1.619263e+00
        72         1       -1.088582e+00
        73         1        9.783193e-01
        74         1       -8.585315e-01
        75         1        1.277722e+00
        76         1       -1.294168e-01
        77         1       -6.938929e-01
        78         1       -6.948696e-01
        79         1        5.977614e-01
        80         1        5.296217e-01
        81         1       -1.239839e+00
        82         1       -1.023956e+00
        83         1       -1.178798e+00
        84         1        4.753490e-01
        85         1        8.700213e-01
        86         1       -1.437050e-01
        87         1        3.259887e-02
        88         1       -5.800364e-01
        89         1        1.265473e+00
        90         1       -1.186436e+00
        91         1       -9.177961e-01
        92         1       -6.221731e-03
        93         1        4.845874e-01
        94         1        7.752148e-01
        95         1        4.523651e-01
        96         1       -1.130033e+00
        97         1       -2.455109e-01
        98         1       -4.364803e-04
        99         1       -8.634418e-01
       100         1       -1.250966e-01
         1         2        3.303970e-02
         2         2       -1.845877e+00
         3         2       -5.591120e-01
         4         2        3.570552e-01
         5         2        4.733320e-01
         6         2        1.164441e+00
         7         2        1.462671e+00
         8         2       -1.405148e-01
         9         2       -1.772898e+00
        10         2        1.009759e-01
        11         2        7.123218e-01
        12         2        5.897683e-01
        13         2       -8.488740e-01
        14         2        1.478880e+00
        15         2       -1.442452e+00
        16         2       -3.411099e-01
        17         2        1.161915e-01
        18         2        5.732184e-01
        19         2        3.034514e-01
        20         2        8.227756e-01
        21         2        1.524527e-01
        22         2        2.610358e+00
        23         2       -1.977272e-01
        24         2        7.844546e-01
        25         2        4.986676e-01
        26         2        1.091359e+00
        27         2        1.431838e+00
        28         2        4.912282e-01
        29         2        1.189924e-01
        30         2       -3.605817e-01
        31         2        1.371251e+00
        32         2       -4.194249e-01
        33         2        1.086743e+00
        34         2        3.126622e-01
        35         2        3.067794e-02
        36         2        1.473729e+00
        37         2        2.080497e+00
        38         2       -4.845386e-01
        39         2        1.842901e+00
        40         2       -4.342282e-01
        41         2       -2.197279e-01
        42         2        5.390395e-02
        43         2        1.420116e+00
        44         2        3.991138e-01
        45         2        1.859868e+00
        46         2        2.479119e-01
        47         2       -8.658824e-01
        48         2       -3.320737e-03
        49         2        3.776249e-01
        50         2       -1.176325e+00
        51         2        4.885840e-01
        52         2       -6.661140e-01
        53         2        3.844686e-01
        54         2       -1.350666e-01
        55         2       -2.103039e-01
        56         2       -6.659511e-01
        57         2       -1.406608e+00
        58         2        8.212115e-01
        59         2        8.023521e-01
        60         2        4.125355e-01
        61         2        6.115518e-01
        62         2       -1.478143e-01
        63         2        4.154901e-01
        64         2       -2.257049e-01
        65         2       -1.646496e+00
        66         2        1.570441e+00
        67         2        3.698633e-01
        68         2       -1.244253e-01
        69         2       -9.719379e-01
        70         2       -7.000208e-01
        71         2        4.527799e-01
        72         2       -1.775893e+00
        73         2       -1.559699e+00
        74         2       -1.859770e-01
        75         2       -1.574385e+00
        76         2        4.846871e-01
        77         2        1.497877e-01
        78         2        1.417588e+00
        79         2        5.492142e-01
        80         2        1.288801e+00
        81         2        6.535807e-01
        82         2        3.277041e-01
        83         2       -5.341034e-01
        84         2        1.112961e-01
        85         2       -1.888899e-01
        86         2        3.555758e-01
        87         2        2.724675e+00
        88         2       -2.158155e-01
        89         2       -9.802429e-01
        90         2       -1.385627e+00
        91         2        3.557017e-01
        92         2       -1.261925e+00
        93         2        3.063812e-02
        94         2        2.575735e-02
        95         2       -4.661828e-01
        96         2        6.018774e-01
        97         2        2.759155e+00
        98         2        1.552985e+00
        99         2        4.769588e-01
       100         2        7.943479e-01
         1         3        1.750133e+00
         2         3       -1.032530e+00
         3         3       -6.423565e-02
         4         3        6.519327e-01
         5         3        5.986625e-01
         6         3       -1.342388e-01
         7         3       -5.362641e-01
         8         3       -4.723677e-01
         9         3        5.499714e-01
        10         3        2.681534e-01
        11         3        2.525679e-01
        12         3        5.691588e-01
        13         3       -1.148073e+00
        14         3       -9.105535e-02
        15         3        3.271162e-01
        16         3        7.277428e-01
        17         3       -6.727975e-01
        18         3       -4.447161e-01
        19         3       -1.247080e+00
        20         3        2.670564e-01
        21         3       -1.009038e+00
        22         3       -1.233998e+00
        23         3        3.322524e-01
        24         3        5.396945e-01
        25         3       -4.567732e-01
        26         3        1.828619e+00
        27         3        1.137696e+00
        28         3       -1.944648e+00
        29         3       -5.450140e-01
        30         3       -9.379851e-01
        31         3       -1.682537e+00
        32         3       -8.979036e-01
        33         3        1.642715e-01
        34         3        2.123660e+00
        35         3       -1.165491e+00
        36         3        6.483937e-01
        37         3       -8.852320e-01
        38         3       -1.180531e+00
        39         3        2.767614e+00
        40         3       -1.166534e+00
        41         3       -8.118734e-01
        42         3        6.062213e-03
        43         3       -1.149690e+00
        44         3       -1.124425e+00
        45         3        1.164463e+00
        46         3       -5.437631e-01
        47         3       -9.733826e-01
        48         3        6.262235e-01
        49         3        6.118983e-01
        50         3        2.686315e-01
        51         3        1.106564e+00
        52         3       -4.512897e-01
        53         3        5.407483e-01
        54         3       -1.355881e+00
        55         3       -3.210935e-01
        56         3        7.199416e-01
        57         3        9.971953e-01
        58         3        5.934275e-02
        59         3        6.669631e-01
        60         3       -4.510427e-01
        61         3        3.973126e-02
        62         3        1.121459e+00
        63         3        7.765228e-01
        64         3       -3.086839e-01
        65         3        1.678137e+00
        66         3        1.401120e+00
        67         3       -2.723050e-01
        68         3        1.112639e+00
        69         3        1.445127e+00
        70         3        2.005003e-01
        71         3       -5.488739e-01
        72         3       -1.357077e+00
        73         3        2.413694e-01
        74         3        1.692750e-01
        75         3       -1.555744e+00
        76         3        1.133998e+00
        77         3       -7.292796e-01
        78         3       -7.103092e-01
        79         3        1.804188e-02
        80         3        4.561127e-01
        81         3       -1.793447e+00
        82         3        1.429154e+00
        83         3       -1.564754e+00
        84         3       -6.111693e-01
        85         3       -2.586478e-01
        86         3        2.656373e-01
        87         3        9.492300e-01
        88         3        5.920486e-01
        89         3        2.292337e-01
        90         3        6.856154e-01
        91         3       -3.991690e-01
        92         3       -5.403105e-01
        93         3        3.457884e-01
        94         3        8.154666e-01
        95         3       -5.732899e-01
        96         3       -4.519925e-01
        97         3       -3.093333e-01
        98         3        7.703548e-01
        99         3       -1.217257e+00
       100         3       -1.904935e+00
         1         4        1.998976e+00
         2         4        7.792874e-01
         3         4       -1.532739e+00
         4         4       -1.455304e+00
         5         4       -8.313968e-01
         6         4        1.599927e+00
         7         4        6.849414e-02
         8         4        1.424224e+00
         9         4        2.074359e+00
        10         4        7.591641e-02
        11         4        3.407141e+00
        12         4       -9.679796e-01
        13         4        1.045598e+00
        14         4        1.375027e-01
        15         4       -6.782758e-01
        16         4        1.412096e+00
        17         4        4.471054e-01
        18         4       -2.093618e-01
        19         4        7.124214e-01
        20         4        4.191713e-01
        21         4        2.299434e-01
        22         4        2.315466e+00
        23         4       -7.114072e-01
        24         4       -4.595056e-01
        25         4        1.003174e+00
        26         4       -1.438151e-01
        27         4       -1.416299e+00
        28         4       -3.782753e-01
        29         4       -7.515306e-01
        30         4        2.731497e-01
        31         4       -9.359326e-02
        32         4       -5.433555e-01
        33         4        7.802958e-01
        34         4        1.088021e+00
        35         4       -1.271561e+00
        36         4       -1.137060e+00
        37         4        8.757973e-02
        38         4        3.334567e-03
        39         4       -6.728439e-01
        40         4        2.892709e-01
        41         4       -5.685016e-01
        42         4        6.400358e-01
        43         4       -2.895036e-01
        44         4       -6.161832e-01
        45         4       -2.074180e-01
        46         4        5.886145e-01
        47         4        1.508099e-01
        48         4       -1.160667e-01
        49         4       -8.433509e-02
        50         4       -1.885636e+00
        51         4       -1.289617e+00
        52         4       -9.641660e-01
        53         4       -2.541309e-01
        54         4        1.002095e+00
        55         4       -1.762098e+00
        56         4       -4.384271e-02
        57         4       -1.355131e-01
        58         4       -2.259416e+00
        59         4        5.414963e-01
        60         4        7.854362e-01
        61         4       -1.906010e-02
        62         4        4.175054e-01
        63         4       -3.536942e-01
        64         4       -4.878251e-02
        65         4       -1.255883e+00
        66         4        2.055019e-01
        67         4       -1.055233e+00
        68         4       -2.610644e-01
        69         4       -2.052583e+00
        70         4        1.309128e+00
        71         4        1.224405e+00
        72         4        1.172746e+00
        73         4        7.304112e-02
        74         4        6.960026e-01
        75         4       -3.891243e-01
        76         4        2.430061e-01
        77         4        4.887310e-01
        78         4       -2.653568e-01
        79         4        1.489045e-01
        80         4        1.472798e+00
        81         4        1.069269e+00
        82         4        2.145273e-01
        83         4        8.425070e-01
        84         4       -1.361332e+00
        85         4        6.547567e-01
        86         4       -2.737927e-01
        87         4        3.307283e-02
        88         4       -6.042092e-01
        89         4       -5.494611e-01
        90         4       -1.718615e+00
        91         4       -3.524368e-01
        92         4        6.091509e-01
        93         4       -1.318506e+00
        94         4       -5.116647e-01
        95         4       -4.383133e-02
        96         4        1.278356e+00
        97         4       -1.501128e+00
        98         4       -1.232179e+00
        99         4       -1.003216e+00
       100         4        7.263513e-01
         1         5       -9.627723e-01
         2         5       -1.237632e+00
         3         5       -4.023903e-01
         4         5       -5.029480e-01
         5         5        5.594827e-01
         6         5        1.109437e+00
         7         5       -1.340221e+00
         8         5        1.426777e+00
         9         5       -6.531341e-01
        10         5        9.689614e-01
        11         5       -1.343481e+00
        12         5        3.948381e-01
        13         5        4.056088e-01
        14         5       -1.131967e+00
        15         5       -1.401088e+00
        16         5       -1.962039e-01
        17         5       -6.125881e-01
        18         5       -8.003965e-01
        19         5        8.536823e-01
        20         5        5.975343e-01
        21         5       -2.755691e-01
        22         5       -6.248528e-01
        23         5       -1.620966e+00
        24         5        4.739736e-01
        25         5        1.592830e-01
        26         5       -2.051271e-01
        27         5        1.759300e-01
        28         5        1.730408e+00
        29         5       -2.931323e-01
        30         5       -1.323667e+00
        31         5       -1.126140e+00
        32         5       -1.449593e-01
        33         5       -1.330121e+00
        34         5        9.232013e-01
        35         5        5.830374e-01
        36         5        1.427362e+00
        37         5       -3.806177e-01
        38         5       -6.350779e-01
        39         5        3.555426e-01
        40         5       -2.723491e-01
        41         5        1.199329e-01
        42         5        7.559956e-01
        43         5       -7.507201e-02
        44         5        4.129295e-01
        45         5       -1.750260e+00
        46         5       -5.067041e-01
        47         5        1.447747e+00
        48         5        1.435487e+00
        49         5       -4.628440e-01
        50         5        1.708247e+00
        51         5       -1.523611e+00
        52         5        8.307165e-01
        53         5       -1.192818e+00
        54         5       -5.289106e-01
        55         5        1.510468e-02
        56         5        1.154877e+00
        57         5       -1.224469e+00
        58         5       -3.545232e-01
        59         5        5.730848e-01
        60         5       -1.565491e+00
        61         5       -3.899701e-01
        62         5        1.206044e+00
        63         5        4.492357e-01
        64         5        1.064767e+00
        65         5        3.047018e-01
        66         5       -1.305256e+00
        67         5        1.070135e+00
        68         5       -3.508530e-01
        69         5       -2.918980e-01
        70         5       -1.096464e+00
        71         5       -4.765156e-01
        72         5        1.533483e+00
        73         5        2.965506e-01
        74         5        1.450085e+00
        75         5       -1.163603e-01
        76         5       -3.307550e-01
        77         5        9.222944e-01
        78         5       -7.018818e-01
        79         5        1.445187e+00
        80         5        2.404108e-01
        81         5       -1.184495e+00
        82         5        1.656638e+00
        83         5       -5.343168e-01
        84         5        7.059730e-01
        85         5        4.108713e-01
        86         5        1.114732e+00
        87         5        7.595715e-02
        88         5       -1.223970e+00
        89         5       -7.752354e-02
        90         5       -4.509736e-01
        91         5       -2.648669e+00
        92         5       -5.318310e-01
        93         5        7.877874e-01
        94         5       -8.770926e-02
        95         5       -4.817812e-01
        96         5        1.478503e+00
        97         5        7.263097e-01
        98         5       -3.419809e-01
        99         5        1.959784e+00
       100         5        8.653008e-01
;

param theta:=
    1        1.065762e+00
    2        8.369961e-01
    3        4.653332e-02
    4        1.667025e+00
    5        7.563778e-01
;
param X_true:=
    1        4.509153e+00
    2       -2.314166e+00
    3       -4.461020e+00
    4       -9.495318e-01
    5       -8.694570e-01
    6        4.322648e+00
    7       -8.152311e-01
    8        1.778303e+00
    9        2.666953e+00
   10        3.216559e-01
   11        4.440465e+00
   12        6.612066e-01
   13        1.584612e+00
   14        1.158008e-01
   15       -3.396355e+00
   16        1.982069e+00
   17        1.858052e+00
   18        5.849237e-01
   19        1.814855e+00
   20       -4.395288e-01
   21       -3.251867e-01
   22        5.810682e+00
   23       -2.120044e+00
   24       -8.208900e-01
   25        4.056136e+00
   26        1.038087e+00
   27       -1.353048e+00
   28        8.350000e-01
   29       -1.092603e+00
   30        8.580465e-01
   31        6.196866e-01
   32       -2.431277e+00
   33        1.430521e+00
   34        3.771173e+00
   35       -1.452426e+00
   36        9.633287e-01
   37        2.266282e+00
   38        5.352867e-01
   39        2.683324e+00
   40        2.686764e-01
   41        1.200233e+00
   42        3.409376e+00
   43        2.612025e-01
   44        1.281387e+00
   45        3.714492e-01
   46        1.471199e-01
   47       -6.508570e-02
   48        1.343786e+00
   49       -5.779742e-01
   50       -6.414331e-01
   51       -4.608455e+00
   52       -6.064449e-01
   53       -2.414606e+00
   54        7.363013e-01
   55       -3.273355e+00
   56       -1.887200e-01
   57        2.405341e-01
   58       -3.021997e+00
   59        7.853242e-01
   60       -5.772978e-02
   61       -8.040573e-01
   62        1.013365e+00
   63        1.004698e+00
   64       -8.207679e-01
   65       -3.475924e+00
   66       -2.765983e-01
   67        2.578772e-01
   68       -2.367222e-01
   69       -3.583688e+00
   70       -6.566561e-01
   71        3.759714e+00
   72        4.057977e-01
   73        9.476884e-02
   74        1.193882e+00
   75       -7.656848e-01
   76        4.769352e-01
   77        8.644974e-01
   78       -5.603131e-01
   79        2.438024e+00
   80        4.301891e+00
   81        2.916626e-02
   82        8.622347e-01
   83       -7.764110e-01
   84       -1.162293e+00
   85        2.158895e+00
   86        5.427002e-01
   87        2.471943e+00
   88       -2.704863e+00
   89       -4.343685e-01
   90       -5.598147e+00
   91       -3.289963e+00
   92       -4.740829e-01
   93       -1.044173e+00
   94       -3.361951e-02
   95       -3.720511e-01
   96        2.528575e+00
   97        8.141970e-02
   98       -9.775864e-01
   99       -7.677343e-01
  100        2.306958e+00
;
param X:=
    1        4.509153e+00
    2       -3.281342e-01
    3        5.010024e-01
    4       -9.495318e-01
    5       -8.694570e-01
    6        1.754053e-01
    7        8.382198e-01
    8       -1.067910e-01
    9        9.428735e-01
   10       -5.312864e-01
   11        2.579102e-02
   12        6.612066e-01
   13       -1.125711e+00
   14       -1.581329e+00
   15       -2.757913e-02
   16        3.460168e-02
   17        1.672667e+00
   18        5.849237e-01
   19        1.585673e+00
   20        7.165992e-01
   21       -3.251867e-01
   22        2.512605e+00
   23       -1.120413e+00
   24       -6.914905e-01
   25        4.056136e+00
   26        2.208554e-02
   27       -2.384493e+00
   28        2.156446e-01
   29       -1.092603e+00
   30        8.044621e-01
   31        1.222667e+00
   32        1.214497e+00
   33        1.371110e+00
   34        2.455766e+00
   35       -1.888171e+00
   36        7.324473e-01
   37        2.266282e+00
   38        1.577994e+00
   39       -1.096620e+00
   40        1.166225e+00
   41        4.435270e-01
   42        3.864248e-01
   43        6.921496e-01
   44        1.281387e+00
   45       -6.679967e-01
   46        3.767543e-01
   47       -6.508570e-02
   48       -8.410362e-01
   49       -5.779742e-01
   50       -6.414331e-01
   51       -4.608455e+00
   52       -1.835070e-01
   53        2.402707e-01
   54        6.377041e-01
   55        5.314385e-01
   56        1.658904e+00
   57        3.010450e-02
   58       -1.126481e+00
   59        1.425601e+00
   60        8.684208e-01
   61       -7.590926e-01
   62        2.210327e+00
   63       -1.000528e+00
   64        1.008173e+00
   65        7.269001e-01
   66        5.779366e-01
   67        1.216882e+00
   68       -2.367222e-01
   69        7.883558e-02
   70        6.932902e-01
   71       -3.234590e-01
   72       -1.643026e-01
   73       -8.566852e-01
   74        1.193882e+00
   75       -7.656848e-01
   76       -1.134266e+00
   77       -6.194072e-01
   78       -4.570116e-01
   79       -7.937591e-01
   80        1.063078e+00
   81        2.916626e-02
   82        2.203563e-01
   83        6.108874e-01
   84       -1.162293e+00
   85       -9.807199e-01
   86        5.427002e-01
   87       -6.153998e-01
   88       -1.408975e+00
   89        1.374978e+00
   90       -5.598147e+00
   91       -1.555403e+00
   92        3.066148e-01
   93       -1.044173e+00
   94        3.601545e-01
   95       -3.720511e-01
   96       -3.703654e-01
   97        1.410753e-01
   98       -9.775864e-01
   99        2.452568e-01
  100        2.814959e-01
;
param outliervec:=
    1    0
    2    1
    3    1
    4    0
    5    0
    6    1
    7    1
    8    1
    9    1
   10    1
   11    1
   12    0
   13    1
   14    1
   15    1
   16    1
   17    1
   18    0
   19    1
   20    1
   21    0
   22    1
   23    1
   24    1
   25    0
   26    1
   27    1
   28    1
   29    0
   30    1
   31    1
   32    1
   33    1
   34    1
   35    1
   36    1
   37    0
   38    1
   39    1
   40    1
   41    1
   42    1
   43    1
   44    0
   45    1
   46    1
   47    0
   48    1
   49    0
   50    0
   51    0
   52    1
   53    1
   54    1
   55    1
   56    1
   57    1
   58    1
   59    1
   60    1
   61    1
   62    1
   63    1
   64    1
   65    1
   66    1
   67    1
   68    0
   69    1
   70    1
   71    1
   72    1
   73    1
   74    0
   75    0
   76    1
   77    1
   78    1
   79    1
   80    1
   81    0
   82    1
   83    1
   84    0
   85    1
   86    0
   87    1
   88    1
   89    1
   90    0
   91    1
   92    1
   93    0
   94    1
   95    0
   96    1
   97    1
   98    0
   99    1
  100    1
;